p cnf 200 1110
-101 -96 0
-101 -37 0
-101 13 0
-101 -40 0
-101 -79 0
-101 61 0
-101 -53 0
-101 -42 0
-101 20 0
-101 -56 0
101 96 37 -13 40 79 -61 53 42 -20 56 0
-102 20 0
-102 3 0
-102 -34 0
-102 45 0
-102 88 0
-102 72 0
-102 5 0
-102 28 0
-102 -93 0
-102 -55 0
102 -20 -3 34 -45 -88 -72 -5 -28 93 55 0
-103 -40 0
-103 -89 0
-103 63 0
-103 -25 0
-103 -43 0
-103 21 0
-103 26 0
-103 -82 0
-103 62 0
-103 59 0
103 40 89 -63 25 43 -21 -26 82 -62 -59 0
-104 -45 0
-104 100 0
-104 99 0
-104 56 0
-104 74 0
-104 -68 0
-104 -40 0
-104 -79 0
-104 -8 0
-104 26 0
104 45 -100 -99 -56 -74 68 40 79 8 -26 0
-105 -50 0
-105 -25 0
-105 85 0
-105 16 0
-105 -90 0
-105 81 0
-105 79 0
-105 -11 0
-105 4 0
-105 -5 0
105 50 25 -85 -16 90 -81 -79 11 -4 5 0
-106 -38 0
-106 -77 0
-106 10 0
-106 34 0
-106 4 0
-106 -85 0
-106 -16 0
-106 19 0
-106 -35 0
-106 -30 0
106 38 77 -10 -34 -4 85 16 -19 35 30 0
-107 -95 0
-107 63 0
-107 -10 0
-107 56 0
-107 -41 0
-107 -50 0
-107 -48 0
-107 -80 0
-107 -47 0
-107 -52 0
107 95 -63 10 -56 41 50 48 80 47 52 0
-108 -3 0
-108 47 0
-108 2 0
-108 17 0
-108 -78 0
-108 83 0
-108 29 0
-108 -57 0
-108 -74 0
-108 60 0
108 3 -47 -2 -17 78 -83 -29 57 74 -60 0
-109 36 0
-109 92 0
-109 -84 0
-109 32 0
-109 -2 0
-109 -91 0
-109 -69 0
-109 -3 0
-109 -80 0
-109 9 0
109 -36 -92 84 -32 2 91 69 3 80 -9 0
-110 -68 0
-110 -71 0
-110 51 0
-110 -14 0
-110 -83 0
-110 21 0
-110 -89 0
-110 23 0
-110 42 0
-110 17 0
110 68 71 -51 14 83 -21 89 -23 -42 -17 0
101 102 103 104 105 106 107 108 109 110 0
-111 -23 0
-111 -36 0
-111 61 0
-111 17 0
-111 80 0
-111 98 0
-111 82 0
-111 -44 0
-111 -26 0
-111 33 0
111 23 36 -61 -17 -80 -98 -82 44 26 -33 0
-112 -69 0
-112 -37 0
-112 84 0
-112 -62 0
-112 21 0
-112 -43 0
-112 38 0
-112 14 0
-112 -49 0
-112 -88 0
112 69 37 -84 62 -21 43 -38 -14 49 88 0
-113 34 0
-113 -61 0
-113 -15 0
-113 64 0
-113 -78 0
-113 58 0
-113 21 0
-113 -90 0
-113 95 0
-113 10 0
113 -34 61 15 -64 78 -58 -21 90 -95 -10 0
-114 -55 0
-114 -12 0
-114 -2 0
-114 -92 0
-114 54 0
-114 -71 0
-114 62 0
-114 29 0
-114 -90 0
-114 45 0
114 55 12 2 92 -54 71 -62 -29 90 -45 0
-115 -59 0
-115 89 0
-115 45 0
-115 -85 0
-115 -92 0
-115 -12 0
-115 -9 0
-115 10 0
-115 18 0
-115 -17 0
115 59 -89 -45 85 92 12 9 -10 -18 17 0
-116 -69 0
-116 -55 0
-116 95 0
-116 78 0
-116 4 0
-116 -47 0
-116 11 0
-116 -5 0
-116 -43 0
-116 -26 0
116 69 55 -95 -78 -4 47 -11 5 43 26 0
-117 -62 0
-117 32 0
-117 55 0
-117 -98 0
-117 -47 0
-117 -94 0
-117 49 0
-117 -99 0
-117 82 0
-117 -8 0
117 62 -32 -55 98 47 94 -49 99 -82 8 0
-118 -3 0
-118 91 0
-118 -10 0
-118 -36 0
-118 9 0
-118 18 0
-118 -71 0
-118 -52 0
-118 -61 0
-118 74 0
118 3 -91 10 36 -9 -18 71 52 61 -74 0
-119 -33 0
-119 75 0
-119 29 0
-119 3 0
-119 58 0
-119 -82 0
-119 -13 0
-119 -76 0
-119 79 0
-119 28 0
119 33 -75 -29 -3 -58 82 13 76 -79 -28 0
-120 -86 0
-120 63 0
-120 -75 0
-120 -94 0
-120 -91 0
-120 17 0
-120 59 0
-120 -36 0
-120 15 0
-120 -43 0
120 86 -63 75 94 91 -17 -59 36 -15 43 0
111 112 113 114 115 116 117 118 119 120 0
-121 46 0
-121 -65 0
-121 -53 0
-121 21 0
-121 -35 0
-121 -84 0
-121 70 0
-121 29 0
-121 40 0
-121 71 0
121 -46 65 53 -21 35 84 -70 -29 -40 -71 0
-122 -72 0
-122 12 0
-122 27 0
-122 52 0
-122 -92 0
-122 -73 0
-122 46 0
-122 61 0
-122 9 0
-122 -44 0
122 72 -12 -27 -52 92 73 -46 -61 -9 44 0
-123 45 0
-123 52 0
-123 47 0
-123 -23 0
-123 63 0
-123 -38 0
-123 39 0
-123 -64 0
-123 37 0
-123 -43 0
123 -45 -52 -47 23 -63 38 -39 64 -37 43 0
-124 -44 0
-124 41 0
-124 -81 0
-124 36 0
-124 45 0
-124 -14 0
-124 52 0
-124 -63 0
-124 -40 0
-124 64 0
124 44 -41 81 -36 -45 14 -52 63 40 -64 0
-125 88 0
-125 58 0
-125 76 0
-125 38 0
-125 78 0
-125 -12 0
-125 68 0
-125 -54 0
-125 52 0
-125 97 0
125 -88 -58 -76 -38 -78 12 -68 54 -52 -97 0
-126 -93 0
-126 8 0
-126 32 0
-126 42 0
-126 -67 0
-126 7 0
-126 86 0
-126 94 0
-126 100 0
-126 61 0
126 93 -8 -32 -42 67 -7 -86 -94 -100 -61 0
-127 -93 0
-127 -30 0
-127 -82 0
-127 -22 0
-127 -39 0
-127 -14 0
-127 21 0
-127 89 0
-127 -24 0
-127 96 0
127 93 30 82 22 39 14 -21 -89 24 -96 0
-128 -86 0
-128 41 0
-128 -38 0
-128 100 0
-128 25 0
-128 97 0
-128 51 0
-128 18 0
-128 20 0
-128 -92 0
128 86 -41 38 -100 -25 -97 -51 -18 -20 92 0
-129 21 0
-129 1 0
-129 -97 0
-129 -65 0
-129 -56 0
-129 -83 0
-129 -71 0
-129 -72 0
-129 -11 0
-129 -62 0
129 -21 -1 97 65 56 83 71 72 11 62 0
-130 17 0
-130 66 0
-130 7 0
-130 12 0
-130 80 0
-130 96 0
-130 62 0
-130 15 0
-130 29 0
-130 -73 0
130 -17 -66 -7 -12 -80 -96 -62 -15 -29 73 0
121 122 123 124 125 126 127 128 129 130 0
-131 61 0
-131 89 0
-131 57 0
-131 -35 0
-131 -42 0
-131 -40 0
-131 58 0
-131 9 0
-131 -18 0
-131 -3 0
131 -61 -89 -57 35 42 40 -58 -9 18 3 0
-132 -8 0
-132 3 0
-132 -91 0
-132 11 0
-132 37 0
-132 -43 0
-132 -47 0
-132 -27 0
-132 -71 0
-132 54 0
132 8 -3 91 -11 -37 43 47 27 71 -54 0
-133 31 0
-133 8 0
-133 -46 0
-133 -49 0
-133 -60 0
-133 9 0
-133 47 0
-133 -28 0
-133 -84 0
-133 95 0
133 -31 -8 46 49 60 -9 -47 28 84 -95 0
-134 37 0
-134 46 0
-134 33 0
-134 -29 0
-134 -47 0
-134 -42 0
-134 -97 0
-134 68 0
-134 -24 0
-134 58 0
134 -37 -46 -33 29 47 42 97 -68 24 -58 0
-135 47 0
-135 48 0
-135 -13 0
-135 -95 0
-135 28 0
-135 93 0
-135 -82 0
-135 43 0
-135 76 0
-135 -27 0
135 -47 -48 13 95 -28 -93 82 -43 -76 27 0
-136 72 0
-136 -33 0
-136 96 0
-136 86 0
-136 7 0
-136 -53 0
-136 -6 0
-136 65 0
-136 81 0
-136 -41 0
136 -72 33 -96 -86 -7 53 6 -65 -81 41 0
-137 -20 0
-137 -26 0
-137 -82 0
-137 88 0
-137 -67 0
-137 28 0
-137 18 0
-137 -29 0
-137 49 0
-137 95 0
137 20 26 82 -88 67 -28 -18 29 -49 -95 0
-138 1 0
-138 8 0
-138 -75 0
-138 -72 0
-138 -53 0
-138 44 0
-138 15 0
-138 -26 0
-138 -6 0
-138 56 0
138 -1 -8 75 72 53 -44 -15 26 6 -56 0
-139 -71 0
-139 -57 0
-139 9 0
-139 -54 0
-139 -35 0
-139 -66 0
-139 49 0
-139 53 0
-139 6 0
-139 -56 0
139 71 57 -9 54 35 66 -49 -53 -6 56 0
-140 88 0
-140 -82 0
-140 26 0
-140 -85 0
-140 -62 0
-140 -59 0
-140 -75 0
-140 58 0
-140 56 0
-140 23 0
140 -88 82 -26 85 62 59 75 -58 -56 -23 0
131 132 133 134 135 136 137 138 139 140 0
-141 -65 0
-141 -43 0
-141 16 0
-141 -28 0
-141 78 0
-141 12 0
-141 -32 0
-141 -47 0
-141 -57 0
-141 90 0
141 65 43 -16 28 -78 -12 32 47 57 -90 0
-142 -13 0
-142 99 0
-142 -97 0
-142 32 0
-142 -14 0
-142 26 0
-142 22 0
-142 91 0
-142 -40 0
-142 -69 0
142 13 -99 97 -32 14 -26 -22 -91 40 69 0
-143 -52 0
-143 34 0
-143 40 0
-143 36 0
-143 -14 0
-143 -18 0
-143 49 0
-143 86 0
-143 -76 0
-143 -71 0
143 52 -34 -40 -36 14 18 -49 -86 76 71 0
-144 -50 0
-144 -70 0
-144 24 0
-144 -100 0
-144 62 0
-144 66 0
-144 21 0
-144 -42 0
-144 10 0
-144 -72 0
144 50 70 -24 100 -62 -66 -21 42 -10 72 0
-145 90 0
-145 41 0
-145 26 0
-145 -96 0
-145 99 0
-145 25 0
-145 35 0
-145 -34 0
-145 80 0
-145 38 0
145 -90 -41 -26 96 -99 -25 -35 34 -80 -38 0
-146 -78 0
-146 65 0
-146 19 0
-146 -80 0
-146 83 0
-146 18 0
-146 67 0
-146 -3 0
-146 70 0
-146 -25 0
146 78 -65 -19 80 -83 -18 -67 3 -70 25 0
-147 79 0
-147 51 0
-147 -78 0
-147 -87 0
-147 2 0
-147 100 0
-147 28 0
-147 66 0
-147 -77 0
-147 -39 0
147 -79 -51 78 87 -2 -100 -28 -66 77 39 0
-148 31 0
-148 58 0
-148 -70 0
-148 -55 0
-148 -95 0
-148 21 0
-148 -83 0
-148 -76 0
-148 65 0
-148 44 0
148 -31 -58 70 55 95 -21 83 76 -65 -44 0
-149 97 0
-149 -28 0
-149 48 0
-149 -95 0
-149 57 0
-149 12 0
-149 -39 0
-149 40 0
-149 26 0
-149 54 0
149 -97 28 -48 95 -57 -12 39 -40 -26 -54 0
-150 -36 0
-150 -93 0
-150 -24 0
-150 78 0
-150 -57 0
-150 -61 0
-150 -69 0
-150 -52 0
-150 14 0
-150 98 0
150 36 93 24 -78 57 61 69 52 -14 -98 0
141 142 143 144 145 146 147 148 149 150 0
-151 22 0
-151 -86 0
-151 51 0
-151 94 0
-151 -19 0
-151 -95 0
-151 79 0
-151 40 0
-151 -82 0
-151 -80 0
151 -22 86 -51 -94 19 95 -79 -40 82 80 0
-152 -58 0
-152 73 0
-152 -99 0
-152 -35 0
-152 -9 0
-152 64 0
-152 -53 0
-152 19 0
-152 -89 0
-152 -67 0
152 58 -73 99 35 9 -64 53 -19 89 67 0
-153 -9 0
-153 45 0
-153 89 0
-153 -90 0
-153 -27 0
-153 -99 0
-153 15 0
-153 -52 0
-153 -20 0
-153 -16 0
153 9 -45 -89 90 27 99 -15 52 20 16 0
-154 -15 0
-154 91 0
-154 54 0
-154 -6 0
-154 46 0
-154 87 0
-154 25 0
-154 29 0
-154 -51 0
-154 -39 0
154 15 -91 -54 6 -46 -87 -25 -29 51 39 0
-155 -58 0
-155 94 0
-155 69 0
-155 -35 0
-155 -42 0
-155 5 0
-155 -71 0
-155 15 0
-155 -6 0
-155 54 0
155 58 -94 -69 35 42 -5 71 -15 6 -54 0
-156 -54 0
-156 -86 0
-156 -94 0
-156 -37 0
-156 17 0
-156 -80 0
-156 -52 0
-156 -61 0
-156 44 0
-156 -38 0
156 54 86 94 37 -17 80 52 61 -44 38 0
-157 97 0
-157 24 0
-157 56 0
-157 5 0
-157 -85 0
-157 -4 0
-157 88 0
-157 22 0
-157 9 0
-157 -83 0
157 -97 -24 -56 -5 85 4 -88 -22 -9 83 0
-158 48 0
-158 -52 0
-158 24 0
-158 91 0
-158 92 0
-158 -45 0
-158 -34 0
-158 75 0
-158 -76 0
-158 84 0
158 -48 52 -24 -91 -92 45 34 -75 76 -84 0
-159 34 0
-159 88 0
-159 -2 0
-159 -53 0
-159 89 0
-159 4 0
-159 90 0
-159 91 0
-159 36 0
-159 22 0
159 -34 -88 2 53 -89 -4 -90 -91 -36 -22 0
-160 45 0
-160 60 0
-160 -41 0
-160 7 0
-160 -34 0
-160 -12 0
-160 17 0
-160 46 0
-160 75 0
-160 2 0
160 -45 -60 41 -7 34 12 -17 -46 -75 -2 0
151 152 153 154 155 156 157 158 159 160 0
-161 -96 0
-161 -2 0
-161 -61 0
-161 86 0
-161 39 0
-161 12 0
-161 -67 0
-161 22 0
-161 -46 0
-161 -48 0
161 96 2 61 -86 -39 -12 67 -22 46 48 0
-162 43 0
-162 -37 0
-162 -8 0
-162 -42 0
-162 4 0
-162 84 0
-162 92 0
-162 -74 0
-162 44 0
-162 1 0
162 -43 37 8 42 -4 -84 -92 74 -44 -1 0
-163 87 0
-163 3 0
-163 83 0
-163 -95 0
-163 55 0
-163 31 0
-163 -10 0
-163 26 0
-163 -100 0
-163 -45 0
163 -87 -3 -83 95 -55 -31 10 -26 100 45 0
-164 -5 0
-164 -48 0
-164 66 0
-164 -22 0
-164 85 0
-164 25 0
-164 -33 0
-164 -88 0
-164 -50 0
-164 51 0
164 5 48 -66 22 -85 -25 33 88 50 -51 0
-165 83 0
-165 -29 0
-165 61 0
-165 50 0
-165 41 0
-165 -24 0
-165 15 0
-165 1 0
-165 -18 0
-165 67 0
165 -83 29 -61 -50 -41 24 -15 -1 18 -67 0
-166 12 0
-166 -46 0
-166 -70 0
-166 35 0
-166 -96 0
-166 37 0
-166 -91 0
-166 -26 0
-166 -64 0
-166 49 0
166 -12 46 70 -35 96 -37 91 26 64 -49 0
-167 71 0
-167 -91 0
-167 58 0
-167 -33 0
-167 7 0
-167 44 0
-167 4 0
-167 64 0
-167 -81 0
-167 15 0
167 -71 91 -58 33 -7 -44 -4 -64 81 -15 0
-168 53 0
-168 -14 0
-168 62 0
-168 46 0
-168 64 0
-168 56 0
-168 25 0
-168 -22 0
-168 -18 0
-168 35 0
168 -53 14 -62 -46 -64 -56 -25 22 18 -35 0
-169 -22 0
-169 -15 0
-169 35 0
-169 32 0
-169 -62 0
-169 97 0
-169 -89 0
-169 -12 0
-169 -17 0
-169 52 0
169 22 15 -35 -32 62 -97 89 12 17 -52 0
-170 87 0
-170 58 0
-170 71 0
-170 -93 0
-170 -39 0
-170 28 0
-170 74 0
-170 -86 0
-170 84 0
-170 13 0
170 -87 -58 -71 93 39 -28 -74 86 -84 -13 0
161 162 163 164 165 166 167 168 169 170 0
-171 66 0
-171 -68 0
-171 -24 0
-171 -88 0
-171 -11 0
-171 -82 0
-171 53 0
-171 34 0
-171 85 0
-171 14 0
171 -66 68 24 88 11 82 -53 -34 -85 -14 0
-172 -61 0
-172 -6 0
-172 34 0
-172 -66 0
-172 -19 0
-172 -42 0
-172 -24 0
-172 48 0
-172 -90 0
-172 17 0
172 61 6 -34 66 19 42 24 -48 90 -17 0
-173 40 0
-173 82 0
-173 88 0
-173 -94 0
-173 -28 0
-173 -81 0
-173 12 0
-173 66 0
-173 -92 0
-173 98 0
173 -40 -82 -88 94 28 81 -12 -66 92 -98 0
-174 -11 0
-174 96 0
-174 -44 0
-174 -16 0
-174 38 0
-174 28 0
-174 23 0
-174 -7 0
-174 -14 0
-174 92 0
174 11 -96 44 16 -38 -28 -23 7 14 -92 0
-175 -73 0
-175 4 0
-175 2 0
-175 -64 0
-175 74 0
-175 -1 0
-175 -45 0
-175 -27 0
-175 65 0
-175 -49 0
175 73 -4 -2 64 -74 1 45 27 -65 49 0
-176 96 0
-176 -75 0
-176 -57 0
-176 50 0
-176 11 0
-176 73 0
-176 99 0
-176 -89 0
-176 1 0
-176 -38 0
176 -96 75 57 -50 -11 -73 -99 89 -1 38 0
-177 97 0
-177 -21 0
-177 99 0
-177 -30 0
-177 63 0
-177 19 0
-177 -25 0
-177 12 0
-177 78 0
-177 71 0
177 -97 21 -99 30 -63 -19 25 -12 -78 -71 0
-178 -76 0
-178 -64 0
-178 -75 0
-178 -77 0
-178 84 0
-178 47 0
-178 52 0
-178 -24 0
-178 -10 0
-178 -98 0
178 76 64 75 77 -84 -47 -52 24 10 98 0
-179 87 0
-179 34 0
-179 -43 0
-179 -26 0
-179 -1 0
-179 21 0
-179 91 0
-179 41 0
-179 -88 0
-179 63 0
179 -87 -34 43 26 1 -21 -91 -41 88 -63 0
-180 -95 0
-180 -51 0
-180 56 0
-180 -19 0
-180 91 0
-180 1 0
-180 -45 0
-180 14 0
-180 47 0
-180 -70 0
180 95 51 -56 19 -91 -1 45 -14 -47 70 0
171 172 173 174 175 176 177 178 179 180 0
-181 96 0
-181 11 0
-181 89 0
-181 9 0
-181 -97 0
-181 7 0
-181 2 0
-181 -23 0
-181 -93 0
-181 -72 0
181 -96 -11 -89 -9 97 -7 -2 23 93 72 0
-182 -96 0
-182 -58 0
-182 -73 0
-182 -67 0
-182 36 0
-182 -91 0
-182 -38 0
-182 -75 0
-182 -30 0
-182 56 0
182 96 58 73 67 -36 91 38 75 30 -56 0
-183 -30 0
-183 -74 0
-183 -23 0
-183 20 0
-183 6 0
-183 62 0
-183 -63 0
-183 -5 0
-183 85 0
-183 -29 0
183 30 74 23 -20 -6 -62 63 5 -85 29 0
-184 -60 0
-184 61 0
-184 31 0
-184 12 0
-184 32 0
-184 -64 0
-184 85 0
-184 71 0
-184 47 0
-184 7 0
184 60 -61 -31 -12 -32 64 -85 -71 -47 -7 0
-185 43 0
-185 -35 0
-185 2 0
-185 -68 0
-185 97 0
-185 38 0
-185 -64 0
-185 63 0
-185 -28 0
-185 -14 0
185 -43 35 -2 68 -97 -38 64 -63 28 14 0
-186 49 0
-186 -10 0
-186 67 0
-186 54 0
-186 97 0
-186 85 0
-186 99 0
-186 74 0
-186 -33 0
-186 90 0
186 -49 10 -67 -54 -97 -85 -99 -74 33 -90 0
-187 -57 0
-187 55 0
-187 -70 0
-187 97 0
-187 8 0
-187 69 0
-187 -40 0
-187 -21 0
-187 -79 0
-187 58 0
187 57 -55 70 -97 -8 -69 40 21 79 -58 0
-188 -99 0
-188 -9 0
-188 -47 0
-188 -29 0
-188 44 0
-188 55 0
-188 -22 0
-188 -88 0
-188 65 0
-188 48 0
188 99 9 47 29 -44 -55 22 88 -65 -48 0
-189 1 0
-189 -88 0
-189 -44 0
-189 -13 0
-189 38 0
-189 32 0
-189 -80 0
-189 -19 0
-189 -54 0
-189 2 0
189 -1 88 44 13 -38 -32 80 19 54 -2 0
-190 -84 0
-190 67 0
-190 -60 0
-190 100 0
-190 -89 0
-190 87 0
-190 -23 0
-190 -20 0
-190 -19 0
-190 -3 0
190 84 -67 60 -100 89 -87 23 20 19 3 0
181 182 183 184 185 186 187 188 189 190 0
-191 -32 0
-191 -87 0
-191 11 0
-191 -51 0
-191 60 0
-191 -26 0
-191 -27 0
-191 -86 0
-191 -91 0
-191 -80 0
191 32 87 -11 51 -60 26 27 86 91 80 0
-192 57 0
-192 44 0
-192 45 0
-192 86 0
-192 -73 0
-192 -6 0
-192 17 0
-192 87 0
-192 2 0
-192 -74 0
192 -57 -44 -45 -86 73 6 -17 -87 -2 74 0
-193 -76 0
-193 -90 0
-193 -88 0
-193 -4 0
-193 32 0
-193 43 0
-193 49 0
-193 58 0
-193 -70 0
-193 62 0
193 76 90 88 4 -32 -43 -49 -58 70 -62 0
-194 6 0
-194 -15 0
-194 -8 0
-194 84 0
-194 -76 0
-194 -87 0
-194 -23 0
-194 79 0
-194 71 0
-194 80 0
194 -6 15 8 -84 76 87 23 -79 -71 -80 0
-195 89 0
-195 62 0
-195 28 0
-195 98 0
-195 -19 0
-195 38 0
-195 -92 0
-195 -48 0
-195 -20 0
-195 69 0
195 -89 -62 -28 -98 19 -38 92 48 20 -69 0
-196 47 0
-196 4 0
-196 -68 0
-196 -74 0
-196 2 0
-196 31 0
-196 17 0
-196 -39 0
-196 -76 0
-196 -90 0
196 -47 -4 68 74 -2 -31 -17 39 76 90 0
-197 73 0
-197 -85 0
-197 8 0
-197 -29 0
-197 57 0
-197 -51 0
-197 48 0
-197 -35 0
-197 -87 0
-197 -75 0
197 -73 85 -8 29 -57 51 -48 35 87 75 0
-198 83 0
-198 -52 0
-198 -17 0
-198 -31 0
-198 68 0
-198 65 0
-198 47 0
-198 61 0
-198 -16 0
-198 63 0
198 -83 52 17 31 -68 -65 -47 -61 16 -63 0
-199 -21 0
-199 -26 0
-199 -4 0
-199 -84 0
-199 2 0
-199 54 0
-199 -80 0
-199 15 0
-199 25 0
-199 38 0
199 21 26 4 84 -2 -54 80 -15 -25 -38 0
-200 -80 0
-200 24 0
-200 30 0
-200 40 0
-200 6 0
-200 -81 0
-200 -5 0
-200 -46 0
-200 -77 0
-200 -53 0
200 80 -24 -30 -40 -6 81 5 46 77 53 0
191 192 193 194 195 196 197 198 199 200 0
